c CNF generated by Verilog2CNF
p cnf 190 333
-103 -175 58 0
-103 104 175 0
103 175 -104 0
103 -175 -58 0
-105 -176 59 0
-105 106 176 0
105 176 -106 0
105 -176 -59 0
-107 -177 60 0
-107 108 177 0
107 177 -108 0
107 -177 -60 0
-40 -178 31 0
-40 41 178 0
40 178 -41 0
40 -178 -31 0
-117 -179 66 0
-117 118 179 0
117 179 -118 0
117 -179 -66 0
-111 -180 63 0
-111 112 180 0
111 180 -112 0
111 -180 -63 0
-113 -181 64 0
-113 114 181 0
113 181 -114 0
113 -181 -64 0
-115 -182 65 0
-115 116 182 0
115 182 -116 0
115 -182 -65 0
-42 -183 32 0
-42 43 183 0
42 183 -43 0
42 -183 -32 0
-125 -184 71 0
-125 126 184 0
125 184 -126 0
125 -184 -71 0
-119 -185 68 0
-119 120 185 0
119 185 -120 0
119 -185 -68 0
-121 -186 69 0
-121 122 186 0
121 186 -122 0
121 -186 -69 0
-123 -187 70 0
-123 124 187 0
123 187 -124 0
123 -187 -70 0
-44 -188 33 0
-44 45 188 0
44 188 -45 0
44 -188 -33 0
-22 -190 28 0
-22 23 190 0
22 190 -23 0
22 -190 -28 0
-127 -175 73 0
-127 128 175 0
127 175 -128 0
127 -175 -73 0
-129 -176 74 0
-129 130 176 0
129 176 -130 0
129 -176 -74 0
-131 -177 75 0
-131 132 177 0
131 177 -132 0
131 -177 -75 0
-46 -178 34 0
-46 47 178 0
46 178 -47 0
46 -178 -34 0
-141 -179 81 0
-141 142 179 0
141 179 -142 0
141 -179 -81 0
-135 -180 78 0
-135 136 180 0
135 180 -136 0
135 -180 -78 0
-137 -181 79 0
-137 138 181 0
137 181 -138 0
137 -181 -79 0
-139 -182 80 0
-139 140 182 0
139 182 -140 0
139 -182 -80 0
-48 -183 35 0
-48 49 183 0
48 183 -49 0
48 -183 -35 0
-149 -184 86 0
-149 150 184 0
149 184 -150 0
149 -184 -86 0
-143 -185 83 0
-143 144 185 0
143 185 -144 0
143 -185 -83 0
-145 -186 84 0
-145 146 186 0
145 186 -146 0
145 -186 -84 0
-147 -187 85 0
-147 148 187 0
147 187 -148 0
147 -187 -85 0
-50 -188 36 0
-50 51 188 0
50 188 -51 0
50 -188 -36 0
-24 -190 29 0
-24 25 190 0
24 190 -25 0
24 -190 -29 0
-151 -175 88 0
-151 152 175 0
151 175 -152 0
151 -175 -88 0
-153 -176 89 0
-153 154 176 0
153 176 -154 0
153 -176 -89 0
-155 -177 90 0
-155 156 177 0
155 177 -156 0
155 -177 -90 0
-52 -178 37 0
-52 53 178 0
52 178 -53 0
52 -178 -37 0
-165 -179 96 0
-165 166 179 0
165 179 -166 0
165 -179 -96 0
-159 -180 93 0
-159 160 180 0
159 180 -160 0
159 -180 -93 0
-161 -181 94 0
-161 162 181 0
161 181 -162 0
161 -181 -94 0
-163 -182 95 0
-163 164 182 0
163 182 -164 0
163 -182 -95 0
-54 -183 38 0
-54 55 183 0
54 183 -55 0
54 -183 -38 0
-173 -184 101 0
-173 174 184 0
173 184 -174 0
173 -184 -101 0
-167 -185 98 0
-167 168 185 0
167 185 -168 0
167 -185 -98 0
-169 -186 99 0
-169 170 186 0
169 186 -170 0
169 -186 -99 0
-171 -187 100 0
-171 172 187 0
171 187 -172 0
171 -187 -100 0
-56 -188 39 0
-56 57 188 0
56 188 -57 0
56 -188 -39 0
-26 -190 30 0
-26 27 190 0
26 190 -27 0
26 -190 -30 0
-104 1 10 0
-104 -1 -10 0
104 1 -10 0
104 -1 10 0
-106 1 0
-106 10 0
-1 -10 106 0
-108 103 0
-108 19 0
-103 -19 108 0
-41 19 103 0
-41 -19 -103 0
41 19 -103 0
41 -19 103 0
-118 105 0
-118 107 0
-105 -107 118 0
-112 2 11 0
-112 -2 -11 0
112 2 -11 0
112 -2 11 0
-114 2 0
-114 11 0
-2 -11 114 0
-116 111 0
-116 117 0
-111 -117 116 0
-43 117 111 0
-43 -117 -111 0
43 117 -111 0
43 -117 111 0
-126 113 0
-126 115 0
-113 -115 126 0
-120 3 12 0
-120 -3 -12 0
120 3 -12 0
120 -3 12 0
-122 3 0
-122 12 0
-3 -12 122 0
-124 119 0
-124 125 0
-119 -125 124 0
-45 125 119 0
-45 -125 -119 0
45 125 -119 0
45 -125 119 0
-23 121 0
-23 123 0
-121 -123 23 0
-128 4 13 0
-128 -4 -13 0
128 4 -13 0
128 -4 13 0
-130 4 0
-130 13 0
-4 -13 130 0
-132 127 0
-132 20 0
-127 -20 132 0
-47 20 127 0
-47 -20 -127 0
47 20 -127 0
47 -20 127 0
-142 129 0
-142 131 0
-129 -131 142 0
-136 5 14 0
-136 -5 -14 0
136 5 -14 0
136 -5 14 0
-138 5 0
-138 14 0
-5 -14 138 0
-140 135 0
-140 141 0
-135 -141 140 0
-49 141 135 0
-49 -141 -135 0
49 141 -135 0
49 -141 135 0
-150 137 0
-150 139 0
-137 -139 150 0
-144 6 15 0
-144 -6 -15 0
144 6 -15 0
144 -6 15 0
-146 6 0
-146 15 0
-6 -15 146 0
-148 143 0
-148 149 0
-143 -149 148 0
-51 149 143 0
-51 -149 -143 0
51 149 -143 0
51 -149 143 0
-25 145 0
-25 147 0
-145 -147 25 0
-152 7 16 0
-152 -7 -16 0
152 7 -16 0
152 -7 16 0
-154 7 0
-154 16 0
-7 -16 154 0
-156 151 0
-156 21 0
-151 -21 156 0
-53 21 151 0
-53 -21 -151 0
53 21 -151 0
53 -21 151 0
-166 153 0
-166 155 0
-153 -155 166 0
-160 8 17 0
-160 -8 -17 0
160 8 -17 0
160 -8 17 0
-162 8 0
-162 17 0
-8 -17 162 0
-164 159 0
-164 165 0
-159 -165 164 0
-55 165 159 0
-55 -165 -159 0
55 165 -159 0
55 -165 159 0
-174 161 0
-174 163 0
-161 -163 174 0
-168 9 18 0
-168 -9 -18 0
168 9 -18 0
168 -9 18 0
-170 9 0
-170 18 0
-9 -18 170 0
-172 167 0
-172 173 0
-167 -173 172 0
-57 173 167 0
-57 -173 -167 0
57 173 -167 0
57 -173 167 0
-27 169 0
-27 171 0
-169 -171 27 0
